
Gurobi 9.1.2 (linux64) logging started Wed Oct 13 02:58:46 2021

Changed value of parameter LogFile to /home/zongzan/dist_dnn_training/MixedMemoryOpt/data/budget_sweep/p32xlarge_VGG16_256_None/ilp_log/ilp_12893139648.log
   Prev:   Default: 
Changed value of parameter Threads to 32
   Prev: 0  Min: 0  Max: 1024  Default: 0
Changed value of parameter TimeLimit to 3600.0
   Prev: inf  Min: 0.0  Max: inf  Default: inf
Changed value of parameter OptimalityTol to 0.0001
   Prev: 1e-06  Min: 1e-09  Max: 0.01  Default: 1e-06
Parameter IntFeasTol unchanged
   Value: 1e-05  Min: 1e-09  Max: 0.1  Default: 1e-05
Changed value of parameter Presolve to 2
   Prev: -1  Min: -1  Max: 2  Default: -1
Changed value of parameter StartNodeLimit to 10000000
   Prev: -1  Min: -3  Max: 2000000000  Default: -1
Parameter TimeLimit unchanged
   Value: 3600.0  Min: 0.0  Max: inf  Default: inf


Restarting solve


Gurobi Optimizer version 9.1.2 build v9.1.2rc0 (linux64)
Thread count: 28 physical cores, 56 logical processors, using up to 32 threads
Optimize a model with 19803 rows, 9990 columns and 64716 nonzeros
Model fingerprint: 0xd39281ab
Variable types: 2025 continuous, 7965 integer (7965 binary)
Coefficient statistics:
  Matrix range     [1e+00, 5e+07]
  Objective range  [4e+00, 2e+02]
  Bounds range     [1e+00, 2e+08]
  RHS range        [1e+00, 2e+08]
Presolve removed 13919 rows and 5724 columns
Presolve time: 0.07s
Presolved: 5884 rows, 4266 columns, 22009 nonzeros
Variable types: 0 continuous, 4266 integer (3260 binary)
Presolve removed 54 rows and 54 columns
Presolved: 5830 rows, 4212 columns, 21901 nonzeros


Root relaxation: objective 3.146287e+03, 2100 iterations, 0.07 seconds

    Nodes    |    Current Node    |     Objective Bounds      |     Work
 Expl Unexpl |  Obj  Depth IntInf | Incumbent    BestBd   Gap | It/Node Time

     0     0 3146.28740    0  328          - 3146.28740      -     -    0s
     0     0 3158.64447    0  338          - 3158.64447      -     -    0s
     0     0 3158.64447    0  533          - 3158.64447      -     -    0s
     0     0 3158.64447    0  539          - 3158.64447      -     -    0s
     0     0 3164.24745    0   71          - 3164.24745      -     -    0s
     0     0 3164.24745    0   90          - 3164.24745      -     -    0s
     0     0 3187.27383    0  220          - 3187.27383      -     -    0s
     0     0 3187.27383    0  184          - 3187.27383      -     -    0s
     0     0 3218.32047    0  371          - 3218.32047      -     -    0s
     0     0 3218.32047    0  485          - 3218.32047      -     -    0s
     0     0 3227.50710    0  182          - 3227.50710      -     -    0s
     0     0 3227.50710    0  200          - 3227.50710      -     -    1s
     0     0 3227.50710    0  183          - 3227.50710      -     -    1s
     0     0 3227.50710    0  179          - 3227.50710      -     -    1s
     0     0 3227.50710    0  136          - 3227.50710      -     -    1s
     0     0 3227.50710    0  235          - 3227.50710      -     -    1s
     0     0 3227.50710    0  183          - 3227.50710      -     -    1s
     0     2 3227.55920    0  183          - 3227.55920      -     -    2s

Cutting planes:
  Gomory: 10
  Cover: 316
  Implied bound: 1
  Clique: 5
  MIR: 25
  StrongCG: 2
  Inf proof: 1
  Zero half: 12
  RLT: 12
  Relax-and-lift: 8

Explored 781 nodes (61895 simplex iterations) in 2.83 seconds
Thread count was 32 (of 56 available processors)

Solution count 0

Model is infeasible
Best objective -, best bound -, gap -
